n = 17;
lu = [|13, 178
      |-122, 267
      |118, 154
      |-226, 93
      |-274, -67
      |-143, 143
      |-106, 1
      |201, 258
      |-57, 289
      |-253, 181
      |-202, 217
      |34, 119
      |-168, 264
      |23, 221
      |-110, 80
      |-242, 255
      |-15, 287|];
